 Code  2831
 Dimension, Fixed Cost
   100        3000
 Facility, Client, Transportation Cost
     1        9           2
     1       15           3
     1       24           2
     1       36           1
     1       39           2
     1       57           3
     1       62           0
     1       64           0
     1       65           3
     1       76           1
     2       12           1
     2       20           1
     2       30           3
     2       34           3
     2       42           3
     2       53           4
     2       54           4
     2       58           3
     2       61           1
     2       67           3
     3       11           1
     3       17           2
     3       52           2
     3       56           4
     3       60           4
     3       76           2
     3       77           3
     3       85           4
     3       87           3
     3      100           4
     4        1           3
     4        2           0
     4       12           4
     4       34           1
     4       37           0
     4       40           3
     4       45           4
     4       49           2
     4       59           0
     4       61           4
     5        5           2
     5        8           0
     5       10           3
     5       29           0
     5       37           3
     5       57           2
     5       63           1
     5       77           2
     5       78           0
     5       97           0
     6        2           1
     6       24           1
     6       36           1
     6       38           2
     6       44           2
     6       62           0
     6       79           4
     6       83           2
     6       94           0
     6       99           0
     7       10           0
     7       13           2
     7       34           4
     7       37           1
     7       46           2
     7       52           1
     7       62           3
     7       76           0
     7       92           0
     7       96           1
     8        2           1
     8        5           4
     8       31           0
     8       32           4
     8       47           2
     8       50           1
     8       57           2
     8       69           4
     8       80           3
     8      100           2
     9        4           2
     9        5           0
     9       15           4
     9       30           0
     9       38           4
     9       46           1
     9       58           4
     9       62           1
     9       84           1
     9       96           0
    10       16           4
    10       27           2
    10       28           2
    10       35           0
    10       36           0
    10       44           1
    10       57           4
    10       83           0
    10       86           1
    10       95           0
    11       19           0
    11       24           4
    11       29           2
    11       35           2
    11       37           1
    11       39           3
    11       40           3
    11       75           1
    11       79           1
    11       83           1
    12       11           2
    12       16           3
    12       41           0
    12       47           0
    12       53           0
    12       57           4
    12       80           1
    12       81           0
    12       84           3
    12       90           4
    13       16           1
    13       18           2
    13       30           3
    13       34           4
    13       35           3
    13       47           1
    13       55           2
    13       65           2
    13       71           3
    13       93           3
    14       35           0
    14       37           0
    14       43           2
    14       50           0
    14       61           2
    14       82           2
    14       93           4
    14       94           3
    14       96           2
    14       99           0
    15        4           3
    15       15           0
    15       36           2
    15       58           2
    15       68           0
    15       70           2
    15       72           4
    15       79           3
    15       85           4
    15       95           2
    16        7           0
    16       26           1
    16       35           4
    16       36           2
    16       51           1
    16       69           1
    16       78           2
    16       80           4
    16       90           4
    16       92           4
    17        3           0
    17       20           0
    17       40           3
    17       48           1
    17       51           0
    17       60           4
    17       61           0
    17       71           1
    17       77           0
    17       90           3
    18        8           1
    18       14           1
    18       16           3
    18       29           1
    18       33           0
    18       80           0
    18       84           2
    18       86           0
    18       89           0
    18       96           2
    19       19           0
    19       26           2
    19       30           2
    19       42           0
    19       61           3
    19       66           0
    19       74           0
    19       85           3
    19       88           3
    19       97           3
    20       10           3
    20       12           2
    20       28           0
    20       32           0
    20       41           3
    20       45           0
    20       52           2
    20       64           2
    20       68           0
    20       73           1
    21        2           1
    21        4           0
    21       46           3
    21       49           4
    21       58           4
    21       60           1
    21       63           0
    21       68           3
    21       81           0
    21       92           4
    22        1           4
    22        3           3
    22       10           0
    22       23           4
    22       33           3
    22       51           2
    22       63           1
    22       82           2
    22       84           1
    22       99           2
    23        5           0
    23       27           2
    23       32           0
    23       43           4
    23       46           4
    23       60           3
    23       69           2
    23       91           3
    23       94           2
    23       99           0
    24        7           4
    24        9           4
    24       11           0
    24       26           3
    24       30           0
    24       32           1
    24       49           4
    24       52           2
    24       66           4
    24       73           0
    25        4           3
    25       30           1
    25       37           1
    25       44           3
    25       47           1
    25       75           1
    25       77           4
    25       83           2
    25       84           4
    25       88           2
    26       14           4
    26       60           2
    26       64           3
    26       73           4
    26       75           4
    26       78           3
    26       86           4
    26       89           3
    26       91           4
    26       93           2
    27       10           3
    27       11           1
    27       27           1
    27       32           0
    27       41           0
    27       46           2
    27       47           1
    27       50           3
    27       74           4
    27       76           1
    28        2           0
    28       17           2
    28       18           1
    28       23           2
    28       25           0
    28       53           0
    28       76           0
    28       79           0
    28       87           3
    28       96           4
    29       16           3
    29       22           0
    29       24           0
    29       38           4
    29       50           1
    29       67           3
    29       68           2
    29       79           4
    29       90           2
    29       94           2
    30        6           0
    30       50           3
    30       52           1
    30       54           4
    30       56           1
    30       59           2
    30       63           2
    30       65           4
    30       74           4
    30       80           0
    31       30           0
    31       32           3
    31       38           4
    31       43           0
    31       52           2
    31       54           4
    31       59           2
    31       68           4
    31       72           0
    31       98           4
    32       20           2
    32       22           0
    32       30           4
    32       52           4
    32       55           0
    32       56           0
    32       61           1
    32       71           1
    32       96           4
    32       99           4
    33       19           3
    33       20           4
    33       23           4
    33       25           2
    33       28           1
    33       34           3
    33       36           1
    33       47           0
    33       89           3
    33       97           0
    34        7           3
    34       13           0
    34       28           2
    34       31           4
    34       37           1
    34       49           2
    34       51           1
    34       55           2
    34       69           3
    34       70           0
    35        1           3
    35        2           3
    35        5           4
    35        9           0
    35       16           0
    35       18           0
    35       30           2
    35       37           0
    35       47           1
    35       48           1
    36        4           1
    36        9           3
    36       21           4
    36       29           2
    36       65           0
    36       80           4
    36       81           4
    36       82           1
    36       85           2
    36       88           1
    37       25           3
    37       40           2
    37       51           4
    37       55           0
    37       62           4
    37       73           0
    37       77           2
    37       88           4
    37       89           2
    37       97           2
    38        2           1
    38       13           0
    38       14           1
    38       30           4
    38       32           1
    38       40           4
    38       46           1
    38       50           0
    38       59           4
    38       90           4
    39       10           1
    39       11           2
    39       16           1
    39       27           4
    39       32           2
    39       55           2
    39       82           4
    39       87           2
    39       96           3
    39       97           3
    40        2           2
    40       22           0
    40       25           1
    40       30           4
    40       40           3
    40       73           0
    40       80           3
    40       83           2
    40       90           0
    40      100           0
    41        1           2
    41       21           4
    41       33           1
    41       38           0
    41       61           1
    41       65           1
    41       75           3
    41       83           2
    41       84           2
    41       90           3
    42        6           0
    42        7           4
    42       26           1
    42       28           3
    42       36           2
    42       45           2
    42       70           3
    42       86           1
    42       96           4
    42       98           3
    43       15           4
    43       23           2
    43       57           0
    43       58           4
    43       60           4
    43       66           4
    43       69           4
    43       83           2
    43       90           3
    43       91           2
    44        9           4
    44       10           3
    44       13           0
    44       25           4
    44       53           2
    44       56           3
    44       81           3
    44       86           0
    44       95           0
    44       97           3
    45        4           3
    45        9           3
    45       20           0
    45       35           4
    45       59           2
    45       61           4
    45       73           2
    45       95           3
    45       96           2
    45      100           2
    46        2           3
    46       18           1
    46       23           4
    46       24           3
    46       25           3
    46       30           1
    46       49           2
    46       53           3
    46       61           2
    46       82           4
    47       10           3
    47       25           1
    47       28           4
    47       33           1
    47       52           4
    47       54           1
    47       64           4
    47       70           2
    47       71           3
    47       98           1
    48        1           1
    48        5           3
    48        6           0
    48       11           1
    48       14           4
    48       48           3
    48       54           2
    48       57           3
    48       58           4
    48       91           2
    49        6           3
    49        9           3
    49       14           0
    49       38           2
    49       52           1
    49       63           1
    49       81           4
    49       86           1
    49       90           4
    49       99           4
    50        5           2
    50       12           4
    50       18           0
    50       23           0
    50       28           4
    50       29           3
    50       33           1
    50       36           3
    50       75           1
    50       83           3
    51        9           4
    51       12           3
    51       15           0
    51       23           2
    51       41           0
    51       56           1
    51       63           1
    51       78           4
    51       84           2
    51       99           2
    52        1           4
    52        2           3
    52       10           1
    52       18           3
    52       29           0
    52       36           4
    52       47           2
    52       65           4
    52       93           1
    52       96           3
    53       15           1
    53       25           3
    53       28           2
    53       49           3
    53       56           1
    53       64           4
    53       95           3
    53       96           3
    53       97           0
    53      100           2
    54        1           0
    54        5           4
    54       22           4
    54       23           2
    54       30           2
    54       45           1
    54       55           1
    54       77           1
    54       80           1
    54       97           2
    55        5           1
    55        6           2
    55        8           0
    55       10           1
    55       23           0
    55       27           0
    55       45           3
    55       88           3
    55       94           2
    55       97           2
    56       16           3
    56       20           0
    56       34           1
    56       39           0
    56       41           4
    56       48           1
    56       51           1
    56       55           2
    56       66           3
    56       69           2
    57        4           4
    57        9           4
    57       24           4
    57       29           0
    57       34           3
    57       39           1
    57       64           4
    57       78           4
    57       98           1
    57      100           2
    58        5           1
    58        6           2
    58       27           4
    58       40           4
    58       49           1
    58       82           4
    58       94           3
    58       95           4
    58       97           3
    58       98           1
    59        7           1
    59       12           2
    59       18           0
    59       23           3
    59       28           0
    59       56           3
    59       79           4
    59       86           4
    59       92           2
    59       97           1
    60        8           2
    60       21           3
    60       35           3
    60       45           4
    60       46           2
    60       48           2
    60       50           3
    60       64           2
    60       68           0
    60       98           4
    61        5           1
    61       11           2
    61       25           2
    61       31           4
    61       52           3
    61       78           1
    61       85           1
    61       88           3
    61       93           3
    61       97           3
    62       12           3
    62       13           3
    62       17           1
    62       20           4
    62       30           3
    62       71           3
    62       72           0
    62       84           3
    62       88           3
    62      100           1
    63       21           0
    63       26           1
    63       28           3
    63       37           0
    63       53           0
    63       57           4
    63       81           0
    63       85           2
    63       94           2
    63       97           0
    64       10           4
    64       16           0
    64       25           1
    64       33           4
    64       41           2
    64       54           1
    64       76           1
    64       89           4
    64       93           4
    64      100           3
    65       20           2
    65       27           2
    65       29           1
    65       31           1
    65       35           1
    65       41           4
    65       62           0
    65       77           1
    65       85           4
    65       90           1
    66       13           2
    66       16           1
    66       35           2
    66       43           4
    66       53           3
    66       59           1
    66       73           2
    66       74           4
    66       77           0
    66       88           4
    67        4           0
    67       24           2
    67       33           0
    67       35           2
    67       39           0
    67       49           3
    67       54           2
    67       65           4
    67       68           3
    67       99           3
    68       21           1
    68       27           2
    68       38           1
    68       57           2
    68       61           2
    68       65           4
    68       75           4
    68       79           0
    68       80           2
    68       94           3
    69        3           2
    69        5           0
    69       16           4
    69       29           4
    69       34           1
    69       35           2
    69       43           2
    69       63           1
    69       76           4
    69       87           2
    70        2           2
    70        5           1
    70        8           2
    70       55           0
    70       62           0
    70       67           4
    70       71           4
    70       81           2
    70       84           0
    70       90           3
    71        6           4
    71       31           0
    71       44           1
    71       55           0
    71       60           3
    71       66           4
    71       71           3
    71       75           1
    71       82           3
    71       85           0
    72        8           2
    72       45           2
    72       47           2
    72       53           0
    72       57           2
    72       64           3
    72       72           3
    72       84           0
    72       97           0
    72      100           4
    73        2           0
    73        5           4
    73       12           3
    73       33           4
    73       37           2
    73       48           2
    73       50           2
    73       58           4
    73       65           1
    73      100           1
    74        9           2
    74       11           1
    74       16           3
    74       19           4
    74       44           4
    74       56           1
    74       57           3
    74       78           2
    74       79           3
    74      100           3
    75        2           4
    75        6           4
    75       20           1
    75       40           2
    75       48           3
    75       68           2
    75       75           3
    75       89           3
    75       93           4
    75       96           2
    76        8           1
    76       17           4
    76       31           0
    76       46           4
    76       59           3
    76       65           2
    76       68           0
    76       86           1
    76       88           2
    76       93           1
    77        3           1
    77       14           1
    77       16           2
    77       18           1
    77       24           1
    77       49           1
    77       70           2
    77       71           3
    77       83           2
    77       90           1
    78        9           4
    78       26           2
    78       40           3
    78       45           1
    78       54           1
    78       72           1
    78       87           3
    78       88           4
    78       97           3
    78      100           2
    79        8           0
    79        9           3
    79       13           4
    79       28           0
    79       78           3
    79       79           2
    79       86           2
    79       91           0
    79       96           2
    79       99           4
    80       14           3
    80       15           0
    80       22           4
    80       36           1
    80       43           1
    80       63           3
    80       66           0
    80       72           1
    80       87           0
    80       93           0
    81        1           0
    81        3           1
    81        4           0
    81        8           1
    81       60           1
    81       62           1
    81       67           3
    81       80           4
    81       81           0
    81       97           0
    82       10           4
    82       40           2
    82       47           1
    82       51           1
    82       77           1
    82       82           2
    82       83           1
    82       84           3
    82       85           1
    82       94           0
    83       11           3
    83       23           2
    83       31           3
    83       48           4
    83       54           4
    83       60           0
    83       64           4
    83       70           3
    83       94           3
    83      100           3
    84       17           2
    84       24           4
    84       25           0
    84       26           1
    84       46           3
    84       53           2
    84       56           2
    84       61           4
    84       82           2
    84       99           0
    85        6           0
    85       12           1
    85       16           0
    85       39           2
    85       51           1
    85       54           2
    85       56           1
    85       74           3
    85       79           2
    85       88           3
    86       13           3
    86       23           0
    86       27           4
    86       37           2
    86       49           3
    86       74           2
    86       88           0
    86       96           1
    86       97           4
    86       99           2
    87       27           4
    87       41           4
    87       45           1
    87       46           1
    87       62           3
    87       70           3
    87       72           4
    87       82           1
    87       85           3
    87       89           0
    88        5           3
    88        7           1
    88       13           1
    88       24           1
    88       28           2
    88       36           1
    88       66           4
    88       74           0
    88       80           0
    88       97           2
    89        7           3
    89       12           4
    89       13           4
    89       14           0
    89       38           1
    89       69           4
    89       77           3
    89       82           0
    89       88           0
    89       99           3
    90        2           1
    90        3           0
    90       10           0
    90       23           4
    90       34           1
    90       52           1
    90       57           2
    90       63           0
    90       65           2
    90       83           1
    91        1           4
    91       18           4
    91       26           2
    91       48           2
    91       50           4
    91       56           1
    91       58           1
    91       75           2
    91       88           0
    91       96           3
    92        3           4
    92       16           3
    92       23           0
    92       41           3
    92       42           3
    92       60           1
    92       67           3
    92       76           1
    92       78           1
    92       91           0
    93       10           0
    93       14           3
    93       19           4
    93       24           1
    93       55           3
    93       58           1
    93       59           3
    93       76           2
    93       86           3
    93       96           3
    94       14           0
    94       20           0
    94       24           1
    94       39           4
    94       42           4
    94       52           1
    94       62           0
    94       73           1
    94       79           4
    94       90           0
    95        9           0
    95       14           3
    95       16           1
    95       28           0
    95       61           3
    95       67           4
    95       68           0
    95       74           0
    95       82           0
    95       91           1
    96        3           4
    96       15           1
    96       18           1
    96       21           1
    96       41           2
    96       68           3
    96       80           0
    96       86           1
    96       97           3
    96       99           1
    97       18           2
    97       36           0
    97       38           4
    97       46           1
    97       53           1
    97       63           3
    97       74           4
    97       80           0
    97       83           4
    97       87           4
    98        1           3
    98        9           2
    98       21           3
    98       29           3
    98       38           0
    98       46           4
    98       50           4
    98       97           2
    98       98           3
    98      100           4
    99        2           2
    99       21           1
    99       57           2
    99       61           0
    99       67           2
    99       74           4
    99       79           0
    99       86           0
    99       88           3
    99       98           4
   100        1           3
   100        5           2
   100        9           3
   100       21           0
   100       32           3
   100       35           4
   100       51           3
   100       55           0
   100       83           0
   100       99           2
